\ This file has been generated by DOcplex
\ ENCODING=ISO-8859-1
\Problem name: Market Sharing Problem

Minimize
 obj: s_plus_0 + s_plus_1 + s_plus_2 + s_minus_0 + s_minus_1 + s_minus_2
Subject To
 demand_constraint_0: 40 x_0 + 15 x_1 + 72 x_2 + 22 x_3 + 43 x_4 + 82 x_5
                      + 75 x_6 + 7 x_7 + 34 x_8 + 49 x_9 + 95 x_10 + 75 x_11
                      + 85 x_12 + 47 x_13 + 63 x_14 + 31 x_15 + 90 x_16
                      + 20 x_17 + 37 x_18 + 39 x_19 + s_plus_0 - s_minus_0 = 
                      510
 demand_constraint_1: 67 x_0 + 4 x_1 + 42 x_2 + 51 x_3 + 38 x_4 + 33 x_5
                      + 58 x_6 + 67 x_7 + 69 x_8 + 88 x_9 + 68 x_10 + 46 x_11
                      + 70 x_12 + 95 x_13 + 83 x_14 + 31 x_15 + 66 x_16
                      + 80 x_17 + 52 x_18 + 76 x_19 + s_plus_1 - s_minus_1 = 
                      592
 demand_constraint_2: 50 x_0 + 4 x_1 + 90 x_2 + 63 x_3 + 79 x_4 + 49 x_5
                      + 39 x_6 + 46 x_7 + 8 x_8 + 50 x_9 + 15 x_10 + 8 x_11
                      + 17 x_12 + 22 x_13 + 73 x_14 + 57 x_15 + 90 x_16
                      + 62 x_17 + 83 x_18 + 96 x_19 + s_plus_2 - s_minus_2 = 
                      500

Bounds
 0 <= x_0 <= 1
 0 <= x_1 <= 1
 0 <= x_2 <= 1
 0 <= x_3 <= 1
 0 <= x_4 <= 1
 0 <= x_5 <= 1
 0 <= x_6 <= 1
 0 <= x_7 <= 1
 0 <= x_8 <= 1
 0 <= x_9 <= 1
 0 <= x_10 <= 1
 0 <= x_11 <= 1
 0 <= x_12 <= 1
 0 <= x_13 <= 1
 0 <= x_14 <= 1
 0 <= x_15 <= 1
 0 <= x_16 <= 1
 0 <= x_17 <= 1
 0 <= x_18 <= 1
 0 <= x_19 <= 1
       s_plus_0 <= 1021
       s_plus_1 <= 1184
       s_plus_2 <= 1001
       s_minus_0 <= 1021
       s_minus_1 <= 1184
       s_minus_2 <= 1001

Binaries
 x_0 x_1 x_2 x_3 x_4 x_5 x_6 x_7 x_8 x_9 x_10 x_11 x_12 x_13 x_14 x_15 x_16 x_17
 x_18 x_19

Generals
 s_plus_0 s_plus_1 s_plus_2 s_minus_0 s_minus_1 s_minus_2
End
